p cnf 97 228
1 0
6 7 0
-6 -7 0
8 -9 0
-8 9 0
-5 6 0
-5 8 0
5 -6 -8 0
11 12 0
-11 -12 0
13 -14 0
-13 14 0
-10 11 0
-10 13 0
10 -11 -13 0
4 -5 0
4 -10 0
-4 5 10 0
16 17 0
-16 -17 0
18 -19 0
-18 19 0
-15 16 0
-15 18 0
15 -16 -18 0
3 -4 0
3 -15 0
-3 4 15 0
-23 3 0
23 -3 0
28 -17 0
-28 17 0
29 19 0
-29 -19 0
-27 28 0
-27 29 0
27 -28 -29 0
-30 5 0
30 -5 0
-26 27 0
-26 30 0
26 -27 -30 0
-32 15 0
32 -15 0
34 -7 0
-34 7 0
35 9 0
-35 -9 0
-33 34 0
-33 35 0
33 -34 -35 0
-31 32 0
-31 33 0
31 -32 -33 0
25 -26 0
25 -31 0
-25 26 31 0
38 17 0
-38 -17 0
39 19 0
-39 -19 0
-37 38 0
-37 39 0
37 -38 -39 0
-40 33 0
40 -33 0
-36 37 0
-36 40 0
36 -37 -40 0
24 -25 0
24 -36 0
-24 25 36 0
-22 23 0
-22 24 0
22 -23 -24 0
-42 3 0
42 -3 0
-46 27 0
46 -27 0
-47 10 0
47 -10 0
-45 46 0
-45 47 0
45 -46 -47 0
-49 15 0
49 -15 0
51 -12 0
-51 12 0
52 14 0
-52 -14 0
-50 51 0
-50 52 0
50 -51 -52 0
-48 49 0
-48 50 0
48 -49 -50 0
44 -45 0
44 -48 0
-44 45 48 0
-54 37 0
54 -37 0
-55 50 0
55 -50 0
-53 54 0
-53 55 0
53 -54 -55 0
43 -44 0
43 -53 0
-43 44 53 0
-41 42 0
-41 43 0
41 -42 -43 0
21 -22 0
21 -41 0
-21 22 41 0
-57 3 0
57 -3 0
-61 27 0
61 -27 0
-62 15 0
62 -15 0
-60 61 0
-60 62 0
60 -61 -62 0
-64 15 0
64 -15 0
-65 27 0
65 -27 0
-63 64 0
-63 65 0
63 -64 -65 0
59 -60 0
59 -63 0
-59 60 63 0
-67 37 0
67 -37 0
-68 27 0
68 -27 0
-66 67 0
-66 68 0
66 -67 -68 0
58 -59 0
58 -66 0
-58 59 66 0
-56 57 0
-56 58 0
56 -57 -58 0
20 -21 0
20 -56 0
-20 21 56 0
2 -3 0
2 -20 0
-2 3 20 0
-74 33 0
74 -33 0
-75 10 0
75 -10 0
-73 74 0
-73 75 0
73 -74 -75 0
-77 5 0
77 -5 0
-78 50 0
78 -50 0
-76 77 0
-76 78 0
76 -77 -78 0
72 -73 0
72 -76 0
-72 73 76 0
81 7 0
-81 -7 0
82 9 0
-82 -9 0
-80 81 0
-80 82 0
80 -81 -82 0
-83 50 0
83 -50 0
-79 80 0
-79 83 0
79 -80 -83 0
71 -72 0
71 -79 0
-71 72 79 0
-87 50 0
87 -50 0
-88 15 0
88 -15 0
-86 87 0
-86 88 0
86 -87 -88 0
-90 10 0
90 -10 0
-91 27 0
91 -27 0
-89 90 0
-89 91 0
89 -90 -91 0
85 -86 0
85 -89 0
-85 86 89 0
94 12 0
-94 -12 0
95 14 0
-95 -14 0
-93 94 0
-93 95 0
93 -94 -95 0
-96 27 0
96 -27 0
-92 93 0
-92 96 0
92 -93 -96 0
84 -85 0
84 -92 0
-84 85 92 0
-70 71 0
-70 84 0
70 -71 -84 0
-97 80 0
97 -80 0
-69 70 0
-69 97 0
69 -70 -97 0
-1 2 0
-1 69 0
1 -2 -69 0
